smt_library/smt_adder.smt2
; SMT-LIBv2 description generated by Yosys 0.46+124 (git sha1 d1695ad99, g++ 15.0.0 -fPIC -O3)
; yosys-smt2-module adder
(declare-sort |adder_s| 0)
(declare-fun |adder_is| (|adder_s|) Bool)
(declare-fun |adder#0| (|adder_s|) (_ BitVec 8)) ; \a
; yosys-smt2-input a 8
; yosys-smt2-witness {"offset": 0, "path": ["\\a"], "smtname": "a", "smtoffset": 0, "type": "input", "width": 8}
(define-fun |adder_n a| ((state |adder_s|)) (_ BitVec 8) (|adder#0| state))
(declare-fun |adder#1| (|adder_s|) (_ BitVec 8)) ; \b
; yosys-smt2-input b 8
; yosys-smt2-witness {"offset": 0, "path": ["\\b"], "smtname": "b", "smtoffset": 0, "type": "input", "width": 8}
(define-fun |adder_n b| ((state |adder_s|)) (_ BitVec 8) (|adder#1| state))
(define-fun |adder#2| ((state |adder_s|)) (_ BitVec 8) (bvadd (|adder#0| state) (|adder#1| state))) ; \c
; yosys-smt2-output c 8
(define-fun |adder_n c| ((state |adder_s|)) (_ BitVec 8) (|adder#2| state))
(define-fun |adder_a| ((state |adder_s|)) Bool true)
(define-fun |adder_u| ((state |adder_s|)) Bool true)
(define-fun |adder_i| ((state |adder_s|)) Bool true)
(define-fun |adder_h| ((state |adder_s|)) Bool true)
(define-fun |adder_t| ((state |adder_s|) (next_state |adder_s|)) Bool true) ; end of module adder
; yosys-smt2-topmod adder
; end of yosys output
